CMD:
./solvers/bin/cadical --plain --no-reduce -t 1600 ./data/cnfs//beemfrogs4f1/beemfrogs4f1.9.cnf

c --- [ banner ] -------------------------------------------------------------
c 
c CaDiCaL SAT Solver
c Copyright (c) 2016-2024
c A. Biere, M. Fleury, N. Froleyks, K. Fazekas, F. Pollitt, T. Faller
c JKU Linz, University of Freiburg, TU Wien
c 
c Version 2.1.3 5296d3d2a9bf48c154ab2acb5e44625776d821bf
c g++ (Gentoo 12.3.1_p20230526 p2) 12.3.1 20230526 -Wall -Wextra -O3 -DNDEBUG
c Sat Aug 9 07:26:21 PDT 2025 Linux cedar2.int.cedar.computecanada.ca 5.14.0-362.24.2.el9_3.x86_64 x86_64
c 
c --- [ limit ] --------------------------------------------------------------
c 
c setting time limit to 1600 seconds real time (due to '-t 1600')
c 
c --- [ parsing input ] ------------------------------------------------------
c 
c reading DIMACS file from './data/cnfs//beemfrogs4f1/beemfrogs4f1.9.cnf'
c opening file to read './data/cnfs//beemfrogs4f1/beemfrogs4f1.9.cnf'
c found 'p cnf 84171 251771' header
c parsed 251771 clauses in 0.04 seconds process time
c 
c --- [ options ] ------------------------------------------------------------
c 
c   --compact=false                (different from default 'true')
c   --decompose=false              (different from default 'true')
c   --deduplicate=false            (different from default 'true')
c   --elim=false                   (different from default 'true')
c   --probe=false                  (different from default 'true')
c   --reduce=false                 (different from default 'true')
c   --subsume=false                (different from default 'true')
c   --ternary=false                (different from default 'true')
c   --transred=false               (different from default 'true')
c   --vivify=false                 (different from default 'true')
c 
c --- [ solving ] ------------------------------------------------------------
c 
c time measured in process time since initialization
c 
c  seconds  reductions  redundant  irredundant
c         MB    restarts       trail       variables
c          level   conflicts       glue         remaining
c 
c *  0.04 39  0 0   0    0    0  0% 0 213877 29190 35%
c {  0.05 39  0 0   0    0    0  0% 0 213877 29190 35%
c i  0.06 39 41 0   0  258  222 84% 3 213877 29164 35%
c i  0.07 40 41 0   2  291  250 84% 3 213877 29102 35%
c i  0.07 40 40 0   2  292  250 84% 3 213877 29101 35%
c i  0.07 40 40 0   2  293  250 84% 3 213877 29100 35%
c i  0.07 40 40 0   3  294  250 84% 3 213877 29076 35%
c i  0.07 40 40 0   3  296  251 84% 3 213877 29054 35%
c i  0.07 40 40 0   5  300  253 83% 3 213877 29053 35%
c i  0.07 40 39 0   5  301  253 83% 3 213877 29048 35%
c i  0.07 40 39 0   6  303  254 83% 3 213877 29030 34%
c i  0.08 40 36 0  17  360  305 82% 3 213877 29026 34%
c i  0.09 40 33 0  29  431  369 82% 3 213877 29025 34%
c i  0.10 40 34 0  32  551  482 83% 3 213877 29024 34%
c i  0.10 40 33 0  32  568  497 83% 3 213877 29023 34%
c i  0.11 40 31 0  33  625  550 82% 3 213877 29006 34%
c i  0.12 40 27 0  36  770  680 81% 3 213877 28951 34%
c i  0.12 40 27 0  36  771  680 81% 3 213877 28950 34%
c i  0.12 40 27 0  36  772  680 81% 3 213877 28930 34%
c i  0.12 40 27 0  36  774  681 81% 3 213877 28922 34%
c 
c  seconds  reductions  redundant  irredundant
c         MB    restarts       trail       variables
c          level   conflicts       glue         remaining
c 
c i  0.12 40 27 0  36  775  681 81% 3 213877 28915 34%
c i  0.12 40 27 0  36  787  690 81% 3 213877 28914 34%
c i  0.12 40 26 0  36  790  692 81% 3 213877 28840 34%
c i  0.14 40 25 0  47  888  780 80% 3 213877 28825 34%
c i  0.14 40 25 0  48  892  783 80% 3 213877 28820 34%
c i  0.14 40 25 0  49  893  783 80% 3 213877 28819 34%
c i  0.14 40 25 0  49  894  783 80% 3 213877 28814 34%
c i  0.14 40 25 0  49  895  783 80% 3 213877 28813 34%
c i  0.14 40 25 0  51  899  786 80% 3 213877 28802 34%
c i  0.16 40 24 0  56  964  846 80% 3 213877 28799 34%
c i  0.16 40 24 0  56  972  853 80% 3 213877 28766 34%
c }  0.16 40 24 0  61 1000  879 81% 3 213877 28766 34%
c [  0.16 40  0 0  61 1000  879  0% 0 213877 28766 34%
c O  0.16 40 15 0  61 1003  882 83% 2 213877 28766 34%
c i  0.23 40  8 0  61 1412 1210 76% 4 213877 28729 34%
c i  0.26 40  8 0  61 1644 1371 77% 4 213877 28640 34%
c i  0.26 40  8 0  61 1652 1374 77% 4 213877 27811 33%
c i  0.26 40  8 0  61 1656 1376 77% 4 213877 27702 33%
c i  0.26 40  8 0  61 1658 1377 77% 4 213877 27581 33%
c ]  0.26 40  8 0  61 1660 1377 77% 4 213877 27472 33%
c 
c  seconds  reductions  redundant  irredundant
c         MB    restarts       trail       variables
c          level   conflicts       glue         remaining
c 
c 0  0.26 40  8 0  61 1660 1377 77% 4 213877 27472 33%
c 
c --- [ result ] -------------------------------------------------------------
c 
s UNSATISFIABLE
c 
c --- [ run-time profiling ] -------------------------------------------------
c 
c process time taken by individual solving procedures
c (percentage relative to process time for solving)
c 
c         0.23   99.95% search
c         0.11   50.47% unstable
c         0.10   45.17% stable
c         0.04   15.60% parse
c         0.01    4.30% lucky
c         0.00    0.00% simplify
c   =================================
c         0.23   86.34% solve
c 
c last line shows process time for solving
c (percentage relative to total process time)
c 
c --- [ statistics ] ---------------------------------------------------------
c 
c chronological:               517        31.14 %  of conflicts
c conflicts:                  1660      7292.09    per second
c decisions:                  3594     15787.81    per second
c fixed:                     56699        67.36 %  of all variables
c learned:                    1576        94.94 %  per conflict
c learned_lits:              47967       100.00 %  learned literals
c minimized:                     0         0.00 %  learned literals
c shrunken:                  14404        30.03 %  learned literals
c minishrunken:               9847        20.53 %  learned literals
c otfs:                         21         1.27 %  of conflict
c propagations:            4292288        18.86 M  per second
c rephased:                      1      1660.00    interval
c restarts:                     61        27.21    interval
c stabilizing:                   1        39.70 %  of conflicts
c subsumed:                    165         0.08 %  of all clauses
c strengthened:                 20         0.01 %  of all clauses
c 
c seconds are measured in process time for solving
c 
c --- [ resources ] ----------------------------------------------------------
c 
c total process time since initialization:         0.26    seconds
c total real time since initialization:            0.27    seconds
c maximum resident set size of process:           38.45    MB
c 
c --- [ shutting down ] ------------------------------------------------------
c 
c exit 20
